data/MCDM/NO_CORR/GEN_FROM_60/13_ITEMS_1000_GEN/K5013W03.KNP.mps
NAME          BLANK   
ROWS
 N  OBJROW
 L  R0000000
COLUMNS
    C0000000  OBJROW     -662.         R0000000  403.        
    C0000001  OBJROW     -680.         R0000000  269.        
    C0000002  OBJROW     -956.         R0000000  236.        
    C0000003  OBJROW     -777.         R0000000  382.        
    C0000004  OBJROW     -606.         R0000000  36.         
    C0000005  OBJROW     -43.          R0000000  821.        
    C0000006  OBJROW     -455.         R0000000  828.        
    C0000007  OBJROW     -195.         R0000000  421.        
    C0000008  OBJROW     -375.         R0000000  806.        
    C0000009  OBJROW     -743.         R0000000  580.        
    C0000010  OBJROW     -544.         R0000000  931.        
    C0000011  OBJROW     -709.         R0000000  572.        
    C0000012  OBJROW     -163.         R0000000  675.        
RHS
    RHS       R0000000  13865.      
BOUNDS
 BV BOUND     C0000000  1.          
 BV BOUND     C0000001  1.          
 BV BOUND     C0000002  1.          
 BV BOUND     C0000003  1.          
 BV BOUND     C0000004  1.          
 BV BOUND     C0000005  1.          
 BV BOUND     C0000006  1.          
 BV BOUND     C0000007  1.          
 BV BOUND     C0000008  1.          
 BV BOUND     C0000009  1.          
 BV BOUND     C0000010  1.          
 BV BOUND     C0000011  1.          
 BV BOUND     C0000012  1.          
ENDATA
