data/MCDM/NO_CORR/GEN_FROM_60/13_ITEMS_1000_GEN/K5013W03.KNP.txt
N 13
M 14
LC 13
LC 14
LC 15
LC 16
LC 17
LC 18
LC 19
LC 20
LC 21
LC 22
LC 23
LC 24
LC 25
LR 1
LR 2
LR 3
LR 4
LR 5
LR 6
LR 7
LR 8
LR 9
LR 10
LR 11
LR 12
LR 13
LR 14
LO -662
LO -680
LO -956
LO -777
LO -606
LO -43
LO -455
LO -195
LO -375
LO -743
LO -544
LO -709
LO -163
OS 1
IC 349
IC 931
IC 484
IC 296
IC 232
IC 162
IC 761
IC 642
IC 263
IC 899
IC 50
IC 998
IC 122
IB 3095
